# Solution for model r5_t18_m8_9 Batch Number: 2
# Finished Task: 18 / 18
# Makespan: 604.0, Total Distance: 454.0, Total Time: 2.1470
# R O S F Batch
0 0 14 0.0 0.0 -1
1 1 9 0.0 0.0 -1
2 2 7 0.0 0.0 -1
3 3 8 0.0 0.0 -1
4 4 5 0.0 0.0 -1
5 4 -1 52.0 80.0 0
6 0 16 384.0 412.0 1
7 2 22 40.0 69.0 0
8 3 18 70.0 94.0 0
9 1 15 154.0 174.0 0
10 1 19 509.0 538.0 1
11 2 -1 470.0 496.0 1
12 3 -1 390.0 419.0 0
13 0 -1 569.0 604.0 1
14 0 21 235.0 259.0 0
15 1 20 419.0 444.0 0
16 0 17 433.0 456.0 1
17 0 13 488.0 517.0 1
18 3 12 325.0 357.0 0
19 1 -1 577.0 604.0 1
20 1 10 456.0 477.0 1
21 0 6 322.0 360.0 0
22 2 11 412.0 433.0 1
